32	4
12	19	19	11
0	0	0	0	0	11	2	3	4	5	6	10	18	19	29	30	31
2	1	5	1	2	8	7	9	12	16	22	24	25	27
7	1	1	1	1	7	12	13	16	17	22	24	25
5	5	13	1	1	5	8	15	25	26	27
1	5	1	1	2	7	13	21	22	23	26	27	28
5	3	4	1	1	7	14	15	22	23	24	26	28
8	3	12	7	1	3	11	15	23
1	1	5	1	9	4	12	14	22	24
3	3	1	3	1	2	11	21
8	6	1	1	1	3	16	20	25
8	1	8	1	1	1	13
7	1	3	1	1	2	20	21
8	1	1	1	1	1	14
5	2	1	12	1	1	20
3	1	5	3	7	1	21
4	1	6	5	1	1	23
10	1	1	9	4	1	20
9	2	5	1	1	1	22
10	1	7	3	2	1	21
8	5	1	1	1	1	32
5	3	4	1	1	1	32
2	1	8	1	1	1	32
4	1	1	1	5	1	32
10	3	1	1	1	1	32
8	1	1	9	1	1	32
2	6	1	15	1	1	32
3	4	1	19	1	1	32
3	2	8	6	1	1	32
7	1	1	1	5	1	32
6	1	3	5	4	1	32
8	5	4	1	6	1	32
0	0	0	0	0	0
